results/res_prop_muc/res_Cimatti_mathsat_cores/QF_UF/SEQ009_size8.smt.smt2.out

real	0m3.373s
user	0m3.179s
sys	0m0.137s
